decision_x1=[0,4];
decision_x2=[0,4];
decision_x3=[0,4];
decision_x4=[0,4];
decision_x5=[0,4];
random_y1=[0,4];
constraint_x2_x1=[
0,1,8.1|
0,2,6.1|
0,3,0.6|
0,4,8.8|
1,0,2.4|
1,2,2.8|
1,3,0.97|
1,4,3.1|
2,0,1.1|
2,1,8.3|
2,3,5.7|
2,4,8.2|
3,0,4.9|
3,1,1.5|
3,2,2.6|
3,4,2.6|
4,0,6|
4,1,2.7|
4,2,8.2|
4,3,0.27|
];
constraint_x3_x1=[
0,1,1.2|
0,2,3.1|
0,3,4.3|
0,4,9.4|
1,0,9.3|
1,2,1.7|
1,3,0.4|
1,4,7.8|
2,0,9.4|
2,1,5.8|
2,3,3.6|
2,4,2|
3,0,2.8|
3,1,9.1|
3,2,8|
3,4,4.9|
4,0,3.7|
4,1,9.4|
4,2,7|
4,3,9|
];
constraint_x3_x2=[
0,1,4.4|
0,2,0.45|
0,3,7.6|
0,4,5.2|
1,0,2.2|
1,2,2.3|
1,3,2.4|
1,4,4.6|
2,0,9.8|
2,1,9.4|
2,3,5.9|
2,4,0.64|
3,0,9.5|
3,1,4.9|
3,2,5.4|
3,4,6.1|
4,0,7.2|
4,1,0.96|
4,2,5.8|
4,3,0.75|
];
constraint_x4_x3=[
0,1,5.3|
0,2,3.3|
0,3,3.8|
0,4,0.15|
1,0,4.8|
1,2,3.1|
1,3,6.7|
1,4,4.5|
2,0,3.5|
2,1,1|
2,3,8.1|
2,4,1.4|
3,0,2.2|
3,1,4.9|
3,2,3.4|
3,4,7.6|
4,0,7.3|
4,1,9.8|
4,2,4.8|
4,3,1.8|
];
constraint_x5_x4=[
0,1,9.1|
0,2,9.6|
0,3,2.2|
0,4,9.3|
1,0,1.5|
1,2,4.7|
1,3,0.7|
1,4,6.3|
2,0,2.6|
2,1,0.32|
2,3,7.2|
2,4,3.2|
3,0,3.7|
3,1,4.3|
3,2,8.2|
3,4,7.1|
4,0,7.7|
4,1,8.4|
4,2,3.1|
4,3,0.3|
];
constraint_x1_y1=[
0,0,1.5|
0,1,7.7|
0,2,0.18|
0,3,7.7|
0,4,3.7|
1,0,2.1|
1,1,2.8|
1,2,8.9|
1,3,0.9|
1,4,7.8|
2,0,2|
2,1,9.3|
2,2,2.8|
2,3,2.7|
2,4,6.5|
3,0,0.27|
3,1,9.9|
3,2,9.6|
3,3,7.1|
3,4,1.6|
4,0,4.4|
4,1,0.18|
4,2,7.9|
4,3,2.3|
4,4,2.6|
];
initial_distribution_y1=[0.039,0.58,0.077,0.08,0.23];
transition_y1=[
0.047,0.16,0.41,0.15,0.22|
0.2,0.076,0.25,0.29,0.18|
0.18,0.2,0.23,0.19,0.2|
0.29,0.12,0.18,0.24,0.17|
0.41,0.065,0.025,0.39,0.11|
];
